p cnf 41 115
a 26 37 0
e 1 2 3 4 5 6 7 8 9 10 11 12 13 14 15 16 17 18 19 20 21 22 23 24 25 27 28 29 30 31 32 33 34 35 36 38 39 40 41 0
3 -1 0
3 2 0
1 -2 -3 0
5 2 0
5 -4 0
-2 4 -5 0
8 7 0
8 -7 0
6 8 -9 0
-6 -8 -9 0
6 -8 9 0
-6 8 9 0
-6 9 -10 0
6 -9 -10 0
-6 -9 10 0
6 9 10 0
-5 10 -11 0
5 -10 -11 0
-5 -10 11 0
5 10 11 0
-12 1 0
-12 2 0
-1 -2 12 0
-13 11 0
-13 -12 0
-11 12 13 0
-16 14 0
-16 15 0
-14 -15 16 0
17 -7 0
17 -16 0
7 16 -17 0
-19 7 0
-19 -18 0
-7 18 19 0
20 19 0
20 7 0
-19 -7 -20 0
17 20 -21 0
-17 -20 -21 0
17 -20 21 0
-17 20 21 0
-22 -18 0
-22 -9 0
18 9 22 0
22 -20 -23 0
-22 20 -23 0
22 20 23 0
-22 -20 23 0
24 21 0
24 23 0
-21 -23 -24 0
-19 25 -26 0
19 -25 -26 0
-19 -25 26 0
19 25 26 0
24 26 -27 0
-24 -26 -27 0
24 -26 27 0
-24 26 27 0
13 -27 -28 0
-13 27 -28 0
13 27 28 0
-13 -27 28 0
29 -6 -30 0
-29 6 -30 0
29 6 30 0
-29 -6 30 0
-31 2 0
-31 8 0
-2 -8 31 0
32 -15 0
32 -15 0
15 -32 0
-19 32 -33 0
19 -32 -33 0
-19 -32 33 0
19 32 33 0
34 31 0
34 -33 0
-31 33 -34 0
35 -25 0
35 -7 0
25 7 -35 0
35 25 -36 0
-35 -25 -36 0
35 -25 36 0
-35 25 36 0
37 36 0
37 20 0
-36 -20 -37 0
38 34 0
38 37 0
-34 -37 -38 0
-39 -30 0
-39 -38 0
30 38 39 0
40 28 0
40 -39 0
-28 39 -40 0
-3 -40 -41 0
3 40 -41 0
-3 40 41 0
3 -40 41 0
-14 16 22 0
7 6 -22 -35 -34 0
34 29 -41 -25 -17 21 0
-10 -4 -8 -31 -28 33 0
-17 -6 -2 -22 0
-30 -4 2 0
26 -17 -33 18 -7 0
-21 -16 -38 24 -34 41 18 -17 0
4 10 -22 -18 1 0
39 -1 -4 -10 35 0
41 0
